proyfinal/src/viki/013/experimentInOfficeAgust.take6.output/c4e56c37-2152-4195-bfe6-99af12a0cdbe.als.out
Reading from standard input... Use '--help' for help.
============================[ Problem Statistics ]=============================
|                                                                             |
|  Number of variables:         87638                                         |
|  Number of clauses:          161767                                         |
|  Parse time:                   0.04 s                                       |
|                                                                             |
============================[ Search Statistics ]==============================
| Conflicts |          ORIGINAL         |          LEARNT          | Progress |
|           |    Vars  Clauses Literals |    Limit  Clauses Lit/Cl |          |
===============================================================================
|       100 |   65043   114963   286676 |    42153      100     18 | 25.782 % |
|       250 |   65043   114963   286676 |    46368      250     25 | 25.782 % |
|       475 |   65043   114963   286676 |    51005      475    117 | 25.782 % |
|       812 |   65042   114919   286586 |    56105      810     87 | 25.783 % |
|      1318 |   65042   114919   286586 |    61716     1316     78 | 25.783 % |
|      2077 |   65042   114919   286586 |    67887     2075     72 | 25.783 % |
|      3216 |   65042   114919   286586 |    74676     3214     90 | 25.783 % |
|      4924 |   65024   114827   286374 |    82144     4920     87 | 25.804 % |
|      7486 |   64998   114719   286127 |    90358     7480     99 | 25.834 % |
|     11330 |   64896   114301   285168 |    99394    11312     98 | 25.950 % |
|     17096 |   64659   113358   282930 |   109334    17054    100 | 26.220 % |
===============================================================================
restarts              : 63
conflicts             : 17735          (6081 /sec)
decisions             : 83129          (0.00 % random) (28504 /sec)
propagations          : 30689162       (10523051 /sec)
conflict literals     : 1746965        (40.38 % deleted)
Memory used           : 46.74 MB
CPU time              : 2.91637 s

INDETERMINATE
